c --- [ banner ] -------------------------------------------------------------
c 
c CaDiCaL Radically Simplified CDCL SAT Solver
c Copyright (c) 2016-2021 A. Biere, M. Fleury, N. Froleyks
c 
c Version 1.5.2 a5f15211db36c3956764e18194dd5bd63bf3b5e6
c g++ (GCC) 9.3.0 -Wall -Wextra -O3 -DNDEBUG
c Fri Oct 21 01:27:37 EDT 2022 Linux gra-login3 3.10.0-1160.66.1.el7.x86_64 x86_64
c 
c --- [ limit ] --------------------------------------------------------------
c 
c setting conflict limit to 200000 conflicts (due to '200000')
c 
c --- [ parsing input ] ------------------------------------------------------
c 
c reading DIMACS file from '33.cubes6688.adj'
c opening file to read '33.cubes6688.adj'
c found 'p cnf 6160 1595488' header
c parsed 1595488 clauses in 20.34 seconds process time
c closing file '33.cubes6688.adj'
c after reading 1457566866 bytes 1390.0 MB
c 
c --- [ options ] ------------------------------------------------------------
c 
c all options are set to their default value
c 
c --- [ solving ] ------------------------------------------------------------
c 
c time measured in process time since initialization
c 
c  seconds    reductions  redundant   irredundant
c          MB     restarts       trail       variables
c            level   conflicts       glue         remaining
c 
c * 20.34 1381  0 0   0    0    0  0% 0 1595422 2352 38%
c { 21.36 1437  0 0   0    0    0  0% 0 1595422 2352 38%
c i 23.44 1495 630 0   4   44   40 34% 7 1595422 2351 38%
c i 23.49 1497 579 0   5   48   43 34% 10 1595422 2350 38%
c i 26.97 1537 211 0  27  186  170 29% 29 1595422 2349 38%
c i 26.98 1537 210 0  27  187  170 29% 29 1595422 2348 38%
c i 27.03 1537 207 0  27  190  172 29% 28 1595422 2347 38%
c i 27.76 1542 174 0  27  257  227 28% 24 1595422 2346 38%
c - 32.24 1536 155 1  27  301  266 28% 23 577938 2346 38%
c i 33.79 1479 125 1  30  439  389 28% 23 577938 2345 38%
c i 34.18 1479 123 1  36  462  407 28% 23 577938 2344 38%
c i 34.63 1480 103 1  39  579  508 28% 23 577938 2343 38%
c i 37.38 1484 97 1  82  767  679 28% 25 577938 2338 38%
c i 37.84 1484 95 1  85  829  724 28% 25 577938 2329 38%
c i 37.86 1484 95 1  85  831  725 28% 25 577938 2328 38%
c i 38.74 1485 91 1  93  916  799 28% 25 577938 2327 38%
c i 39.14 1486 91 1 100  942  824 28% 26 577938 2326 38%
c } 40.24 1487 92 1 111 1000  880 28% 27 577938 2326 38%
c [ 40.24 1487  0 1 111 1000  880  0% 0 577938 2326 38%
c O 40.27 1487 39 1 111 1003  882 20% 6 577938 2326 38%
c 
c  seconds    reductions  redundant  irredundant
c          MB     restarts       trail      variables
c            level   conflicts       glue        remaining
c 
c i 40.27 1487 39 1 111 1003  882 20% 6 577938 2293 37%
c i 40.27 1487 29 1 111 1004  882 18% 5 577938 2278 37%
c - 42.43 1732 29 2 111 1362 1087 30% 22 576971 2278 37%
c - 43.99 1732 26 3 112 2949 1457 30% 23 576971 2278 37%
c ] 44.05 1732 26 3 112 3002 1486 30% 22 576971 2278 37%
c { 44.06 1732 92 3 112 3002 1486 28% 27 576971 2278 37%
c F 44.62 1605 91 3 113 3004 1488 30% 27 576971 2278 37%
c i 52.17 1605 70 3 261 4384 2610 46% 29 576971 2276 37%
c i 53.34 1605 68 3 290 4681 2859 46% 29 576971 2275 37%
c i 54.83 1605 67 3 321 4901 3061 46% 30 576971 2274 37%
c d 56.32 1605 67 3 333 5002 3151 46% 30 576949 2268 37%
c 2 56.44 1605 67 3 333 5002 4190 46% 30 576948 2268 37%
c p 65.73 1605 67 3 333 5002 7304 46% 30 576948 2238 36%
c d 66.36 1605 67 3 333 5002 7101 46% 30 522841 2236 36%
c - 67.78 1577 67 4 345 5062 2526 46% 30 522841 2236 36%
c # 69.66 1577 56 4 355 6005 3137 46% 26 522841 2236 36%
c } 73.24 1577 52 4 388 7004 3928 46% 25 522841 2236 36%
c [ 73.24 1577 26 4 388 7004 3928 82% 22 522841 2236 36%
c - 74.17 1361 25 5 389 7641 3079 74% 21 522841 2236 36%
c I 77.11 1361 23 5 390 10007 4687 61% 19 522841 2236 36%
c 
c  seconds    reductions   redundant   irredundant
c          MB     restarts        trail       variables
c            level    conflicts       glue         remaining
c 
c - 79.12 1577 24 6 391 10737 3809 60% 20 522841 2236 36%
c - 83.57 1361 28 7 393 14345 4547 56% 23 522841 2236 36%
c 2 84.26 1361 29 7 393 15002 6037 55% 24 522841 2236 36%
c p 86.85 1361 29 7 393 15002 8968 55% 24 522841 2236 36%
c ] 87.02 1361 29 7 393 15004 8970 55% 24 522841 2236 36%
c { 87.02 1361 52 7 393 15004 8970 46% 25 522841 2236 36%
c B 87.12 1361 52 7 393 15008 8973 46% 25 522841 2236 36%
c - 91.97 1361 41 8 466 18470 5423 47% 22 522841 2236 36%
c s 92.52 1361 41 8 467 18812 5466 47% 22 521780 2236 36%
c v 101.11 1361 41 8 467 18812 5466 47% 22 521770 2236 36%
c t 101.33 1361 41 8 467 18812 5462 47% 22 521761 2236 36%
c e 103.20 1362 41 8 467 18812 5020 47% 22 519620 996 16%
c s 103.36 1362 41 8 467 18812 5020 47% 22 519541 996 16%
c W 118.46 1362 42 8 793 21009 6777 67% 23 519541 996 16%
c - 120.45 1362 39 9 842 23109 6405 68% 23 519541 996 16%
c F 122.21 1362 34 9 892 28012 9472 70% 21 519541 996 16%
c - 123.00 1362 34 10 892 28259 6398 70% 21 519541 996 16%
c p 126.16 1362 32 10 892 30002 10276 71% 21 519541 996 16%
c } 129.76 1362 32 10 1016 31007 11046 70% 21 519541 996 16%
c [ 129.76 1362 29 10 1016 31007 11046 127% 24 519541 996 16%
c 
c  seconds     reductions     redundant    irredundant
c           MB      restarts         trail        variables
c             level      conflicts        glue        remaining
c 
c - 132.04 1362 29 11 1017 33922 7597 113% 24 519541 996 16%
c B 133.82 1362 28 11 1019 36013 8882 107% 24 519541 996 16%
c - 135.84 1362 30 12 1022 40100 7991 98% 26 519541 996 16%
c W 139.18 1362 31 12 1023 45014 11124 92% 27 519541 996 16%
c - 140.04 1362 31 13 1024 46792 8270 91% 27 519541 996 16%
c p 143.35 1362 31 13 1024 50003 13283 88% 27 519541 996 16%
c - 145.61 1362 32 14 1024 53998 9323 86% 28 519541 996 16%
c O 146.01 1362 32 14 1025 55015 9917 85% 28 519541 996 16%
c ] 146.04 1362 32 14 1025 55066 9953 85% 28 519541 996 16%
c 1 146.04 1362 32 14 1025 55066 9953 85% 28 519541 996 16%
c 
c --- [ writing output ] -----------------------------------------------------
c 
c writing simplified CNF to DIMACS file 'simp/33.cubes6688.adj.simp1'
c * 146.04 1362 32 14 1025 55066 9953 85% 28 519541 996 16%
c opening file to write 'simp/33.cubes6688.adj.simp1'
c writing 'p cnf 6160 519541' header
c closing file 'simp/33.cubes6688.adj.simp1'
c after writing 248679866 bytes 237.2 MB
c wrote 519541 clauses in 1.76 seconds process time
c 
c --- [ writing extension ] --------------------------------------------------
c 
c writing extension stack to 'simp/33.cubes6688.adj.ext1'
c opening file to write 'simp/33.cubes6688.adj.ext1'
c closing file 'simp/33.cubes6688.adj.ext1'
c after writing 83746 bytes 0.1 MB
c wrote 3742 witnesses in 0.00 seconds process time
c 
c --- [ result ] -------------------------------------------------------------
c 
s SATISFIABLE
c 
c --- [ run-time profiling ] -------------------------------------------------
c 
c process time taken by individual solving procedures
c (percentage relative to process time for solving)
c 
c        95.20   75.74% search
c        64.82   51.56% unstable
c        30.50   24.26% simplify
c        28.16   22.40% stable
c        20.34   16.18% parse
c        15.97   12.70% probe
c         8.75    6.96% vivify
c         3.42    2.72% elim
c         1.20    0.95% walk
c         1.02    0.81% lucky
c         0.32    0.25% subsume
c         0.25    0.20% ternary
c   =================================
c       125.70   85.05% solve
c 
c last line shows process time for solving
c (percentage relative to total process time)
c 
c --- [ statistics ] ---------------------------------------------------------
c 
c chronological:              9958        18.08 %  of conflicts
c conflicts:                 55066       438.08    per second
c decisions:                132380      1053.15    per second
c eliminated:                 1240        20.13 %  of all variables
c fixed:                       772        12.53 %  of all variables
c learned:                   53970        98.01 %  per conflict
c learned_lits:           10315860       100.00 %  learned literals
c minimized:                     0         0.00 %  learned literals
c shrunken:                6688688        64.84 %  learned literals
c minishrunken:             710822         6.89 %  learned literals
c propagations:            5279746         0.04 M  per second
c reduced:                   27737        50.37 %  per conflict
c rephased:                     10      5506.60    interval
c restarts:                   1025        53.72    interval
c stabilizing:                   3        61.85 %  of conflicts
c substituted:                   8         0.13 %  of all variables
c subsumed:                  17332         0.51 %  of all clauses
c strengthened:               4291         0.13 %  of all clauses
c ternary:                    3358         0.71 %  of resolved
c vivified:                     23         0.00 %  of all clauses
c walked:                        2     27533.00    interval
c weakened:                   2970         3.03    average size
c 
c seconds are measured in process time for solving
c 
c --- [ resources ] ----------------------------------------------------------
c 
c total process time since initialization:       147.80    seconds
c total real time since initialization:          156.47    seconds
c maximum resident set size of process:         1976.47    MB
c 
c --- [ shutting down ] ------------------------------------------------------
c 
c exit 10
WARNING! DIMACS header mismatch: wrong number of variables.
============================[ Problem Statistics ]=============================
|                                                                             |
|  Number of variables:          6120                                         |
|  Number of clauses:          519543                                         |
|  Parse time:                   3.27 s                                       |
|  Simplification time:          0.07 s                                       |
|                                                                             |
============================[ Search Statistics ]====================================================
| Conflicts |          ORIGINAL         |          LEARNT          | Num Sols |      SUBGRAPHS      |
|           |    Vars  Clauses Literals |    Limit  Clauses Lit/Cl |          | Canonical Noncanon. |
=====================================================================================================
|       100 |    6030   519543 54162610 |     2000      100    116 |        0 |        14         0 |
|       254 |    6030   519547 54162750 |     2000      254     97 |        0 |        31         4 |
|       488 |    6030   519556 54162965 |     2000      488    102 |        0 |        37        13 |
|       856 |    6030   519587 54163828 |     2000      856     96 |        0 |        62        44 |
|      1374 |    6030   519599 54164229 |     2000     1374     97 |        0 |        83        56 |
|      6530 |    6030   523996 54250200 |     5004     3734     17 |        0 |      1160      4453 |
|      8383 |    6030   524710 54261431 |     6305     3088     26 |        0 |      1360      5167 |
|     10196 |    6030   524815 54264102 |     6305     4901     60 |        0 |      1412      5272 |
|     12794 |    6030   524851 54265231 |     7554     4348     40 |        0 |      1446      5308 |
|     16979 |    6030   525192 54272088 |     8781     4760     32 |        0 |      1601      5649 |
|     31324 |    6030   533771 54432714 |    11202     9726     32 |        0 |      3736     14228 |
|     42983 |    6030   536781 54488782 |    13608     9591     34 |        0 |      4450     17238 |
|     58641 |    6030   539465 54540651 |    16010    11051     42 |        0 |      5285     19922 |
|     89905 |    6030   551268 54746918 |    19623    16528     56 |        0 |      7423     31725 |
|    120244 |    6030   552415 54768298 |    23212    15656     40 |        0 |      7697     32872 |
|    198667 |    6030   587049 55377200 |    30425    15492     19 |        0 |     12798     67506 |
|    282614 |    6030   605312 55661283 |    35229    35043     50 |        0 |     15592     85769 |
|    384843 |    6030   609015 55731820 |    42418    22661     21 |        0 |     16377     89472 |
|    533955 |    6030   610338 55760039 |    49620    35575     49 |        0 |     16714     90795 |
|    802937 |    6030   657637 56433744 |    60413    59750     21 |        0 |     21967    138094 |
|   1184249 |    6030   706424 57333342 |    74832    39081     20 |        0 |     27466    186881 |
|   1713964 |    6030   737351 57857821 |    89244    80408     57 |        1 |     31561    217807 |
=====================================================================================================
Number of solutions   : 1
Canonical subgraphs   : 38276          (6 /sec)
          order  3    : 1              (200000 /sec)
          order  4    : 1              (500000 /sec)
          order  5    : 1              (200000 /sec)
          order  6    : 1              (55556 /sec)
          order  7    : 1              (8850 /sec)
          order  8    : 2              (1384 /sec)
          order  9    : 7              (353 /sec)
          order 10    : 32             (115 /sec)
          order 11    : 149            (39 /sec)
          order 12    : 1140           (15 /sec)
          order 13    : 5471           (8 /sec)
          order 14    : 9922           (5 /sec)
          order 15    : 19212          (6 /sec)
          order 16    : 1445           (9 /sec)
          order 17    : 527            (8 /sec)
          order 18    : 295            (8 /sec)
          order 19    : 53             (8 /sec)
          order 20    : 9              (10 /sec)
          order 21    : 6              (12 /sec)
          order 22    : 1              (1 /sec)
Noncanonical subgraphs: 297469         (58 /sec)
          order  3    : 0              (-nan /sec)
          order  4    : 0              (-nan /sec)
          order  5    : 0              (-nan /sec)
          order  6    : 0              (-nan /sec)
          order  7    : 0              (-nan /sec)
          order  8    : 0              (-nan /sec)
          order  9    : 0              (-nan /sec)
          order 10    : 0              (-nan /sec)
          order 11    : 0              (-nan /sec)
          order 12    : 0              (-nan /sec)
          order 13    : 19336          (3810 /sec)
          order 14    : 36203          (1120 /sec)
          order 15    : 32016          (278 /sec)
          order 16    : 206902         (42 /sec)
          order 17    : 2470           (83 /sec)
          order 18    : 494            (71 /sec)
          order 19    : 43             (37 /sec)
          order 20    : 0              (-nan /sec)
          order 21    : 0              (-nan /sec)
Canonicity checking   : 6158.49 s
Noncanonicity checking: 5143.04 s
Total canonicity time : 11301.5 s
database reductions   : 79
restarts              : 4088
conflicts             : 2053492        (161 /sec)
decisions             : 2936830        (0.00 % random) (230 /sec)
propagations          : 109141936      (8546 /sec)
conflict literals     : 194473566      (55.53 % deleted)
actual reward         : 0.232561
Memory used           : 758.00 MB
CPU time              : 12771.4 s

UNSATISFIABLE
